Problem:    
Rows:       113
Columns:    45 (34 integer, 34 binary)
Non-zeros:  356
Status:     INTEGER OPTIMAL
Objective:  value = 18.845278 (MINimum)

   No.   Row name        Activity     Lower bound   Upper bound
------ ------------    ------------- ------------- -------------
     1 r.5                   18.8453             0               
     2 r.6                  -983.458      -984.591               
     3 r.7                   1018.85             0               
     4 r.8                  -981.155      -982.288               
     5 r.9                   1018.85             0               
     6 r.10                 -981.155      -994.594               
     7 r.11                  18.8453             0               
     8 r.12                  18.8453      -993.806               
     9 r.13                  1018.85             0               
    10 r.14                  -986.56       -992.53               
    11 r.15                  18.8453             0               
    12 r.16                  18.8453      -989.269               
    13 r.17                  1018.85             0               
    14 r.18                  -994.03       -996.91               
    15 r.19                  18.8453             0               
    16 r.20                  18.8453      -996.531               
    17 r.21                  1018.85             0               
    18 r.22                 -999.347      -999.347               
    19 r.23                  18.8453             0               
    20 r.24                  1.53049      -998.252               
    21 r.25                        1             1             = 
    22 r.26                        1             1             = 
    23 r.27                        1             1             = 
    24 r.28                        1             1             = 
    25 r.29                        1             1             = 
    26 r.30                     1001             2               
    27 r.31                    -1001         -1001               
    28 r.32                   3002.3      -994.594               
    29 r.33                     1001             2               
    30 r.34                    -1001         -1001               
    31 r.35                     2000      -993.806               
    32 r.36                     1001             2               
    33 r.37                    -1001         -1001               
    34 r.38                   2996.9       -992.53               
    35 r.39                     1001             2               
    36 r.40                    -1001         -1001               
    37 r.41                     2000      -989.269               
    38 r.42                     1001             2               
    39 r.43                    -1001         -1001               
    40 r.44                  2989.43       -996.91               
    41 r.45                     1001             2               
    42 r.46                    -1001         -1001               
    43 r.47                     2000      -996.531               
    44 r.48                 -984.591      -984.591               
    45 r.49                 -982.288      -982.288               
    46 r.50                 -984.591      -984.591               
    47 r.51                 -982.288      -982.288               
    48 r.52                     1001             2               
    49 r.53                    -1001         -1001               
    50 r.54                  997.697       15.4089               
    51 r.55                     1001             2               
    52 r.56                    -1001         -1001               
    53 r.57                     2000       17.7119               
    54 r.58                        2             2               
    55 r.59                       -2         -1001               
    56 r.60                  -5.4057       -992.53               
    57 r.61                     1000             2               
    58 r.62                    -1000         -1001               
    59 r.63                     2000      -989.269               
    60 r.64                        2             2               
    61 r.65                       -2         -1001               
    62 r.66                 -12.8757       -996.91               
    63 r.67                     1000             2               
    64 r.68                    -1000         -1001               
    65 r.69                     2000      -996.531               
    66 r.70                 -982.288      -994.594               
    67 r.71                  17.7119      -993.806               
    68 r.72                 -982.288      -994.594               
    69 r.73                  17.7119      -993.806               
    70 r.74                     1001             2               
    71 r.75                    -1001         -1001               
    72 r.76                   1003.1       15.4089               
    73 r.77                     1001             2               
    74 r.78                    -1001         -1001               
    75 r.79                     2000       17.7119               
    76 r.80                        2             2               
    77 r.81                       -2         -1001               
    78 r.82                   5.4057        5.4057               
    79 r.83                     1000             2               
    80 r.84                    -1000         -1001               
    81 r.85                     2000        6.1937               
    82 r.86                        2             2               
    83 r.87                       -2         -1001               
    84 r.88                    -7.47       -996.91               
    85 r.89                     1000             2               
    86 r.90                    -1000         -1001               
    87 r.91                     2000      -996.531               
    88 r.92                 -987.694       -992.53               
    89 r.93                  17.7119      -989.269               
    90 r.94                 -987.694       -992.53               
    91 r.95                  17.7119      -989.269               
    92 r.96                     1001             2               
    93 r.97                    -1001         -1001               
    94 r.98                  1010.57       15.4089               
    95 r.99                     1001             2               
    96 r.100                   -1001         -1001               
    97 r.101                    2000       17.7119               
    98 r.102                       2             2               
    99 r.103                      -2         -1001               
   100 r.104                 12.8757        5.4057               
   101 r.105                    1000             2               
   102 r.106                   -1000         -1001               
   103 r.107                    2000        6.1937               
   104 r.108                       2             2               
   105 r.109                      -2         -1001               
   106 r.110                    7.47          7.47               
   107 r.111                    1000             2               
   108 r.112                   -1000         -1001               
   109 r.113                    2000       10.7315               
   110 r.114                -995.164       -996.91               
   111 r.115                 17.7119      -996.531               
   112 r.116                -995.164       -996.91               
   113 r.117                 17.7119      -996.531               

   No. Column name       Activity     Lower bound   Upper bound
------ ------------    ------------- ------------- -------------
     1 tt                    18.8453             0               
     2 s_1_1        *              0             0             1 
     3 t_1_1                  1002.3             0               
     4 s_2_1        *              1             0             1 
     5 t_2_1                       0             0               
     6 s_1_2        *              1             0             1 
     7 t_1_2                       0             0               
     8 s_2_2        *              0             0             1 
     9 t_2_2                       0             0               
    10 s_1_3        *              1             0             1 
    11 t_1_3                  5.4057             0               
    12 s_2_3        *              0             0             1 
    13 t_2_3                       0             0               
    14 s_1_4        *              1             0             1 
    15 t_1_4                 12.8757             0               
    16 s_2_4        *              0             0             1 
    17 t_2_4                       0             0               
    18 s_1_5        *              1             0             1 
    19 t_1_5                 17.7119             0               
    20 s_2_5        *              0             0             1 
    21 t_2_5                 17.7119             0               
    22 r_1_1_2      *              1             0             1 
    23 u_1_1_2      *              0             0             1 
    24 r_2_1_2      *              1             0             1 
    25 u_2_1_2      *              0             0             1 
    26 r_1_1_3      *              1             0             1 
    27 u_1_1_3      *              0             0             1 
    28 r_2_1_3      *              1             0             1 
    29 u_2_1_3      *              0             0             1 
    30 r_1_1_4      *              1             0             1 
    31 u_1_1_4      *              0             0             1 
    32 r_2_1_4      *              1             0             1 
    33 u_2_1_4      *              0             0             1 
    34 r_1_2_3      *              0             0             1 
    35 u_1_2_3      *              0             0             1 
    36 r_2_2_3      *              1             0             1 
    37 u_2_2_3      *              0             0             1 
    38 r_1_2_4      *              0             0             1 
    39 u_1_2_4      *              0             0             1 
    40 r_2_2_4      *              1             0             1 
    41 u_2_2_4      *              0             0             1 
    42 r_1_3_4      *              0             0             1 
    43 u_1_3_4      *              0             0             1 
    44 r_2_3_4      *              1             0             1 
    45 u_2_3_4      *              0             0             1 

Integer feasibility conditions:

KKT.PE: max.abs.err = 1.14e-13 on row 18
        max.rel.err = 5.58e-17 on row 18
        High quality

KKT.PB: max.abs.err = 1.14e-13 on row 18
        max.rel.err = 2.10e-16 on row 106
        High quality

End of output
